* #variable= 169 #constraint= 101
****************************************
* begin normalizer comments
* category= SAT/UNSAT-SMALLINT
* end normalizer comments
****************************************
-1 x1 -1 x2 -1 x3 -1 x4 -1 x5 -1 x6 -1 x7 -1 x8 -1 x9 -1 x10 -1 x11 -1 x12 -1 x13 >= -1 ;
+1 x1 +1 x2 +1 x3 +1 x4 +1 x5 +1 x6 +1 x7 +1 x8 +1 x9 +1 x10 +1 x11 +1 x12 +1 x13 >= 1 ;
-1 x14 -1 x15 -1 x16 -1 x17 -1 x18 -1 x19 -1 x20 -1 x21 -1 x22 -1 x23 -1 x24 -1 x25 -1 x26 >= -1 ;
+1 x14 +1 x15 +1 x16 +1 x17 +1 x18 +1 x19 +1 x20 +1 x21 +1 x22 +1 x23 +1 x24 +1 x25 +1 x26 >= 1 ;
-1 x27 -1 x28 -1 x29 -1 x30 -1 x31 -1 x32 -1 x33 -1 x34 -1 x35 -1 x36 -1 x37 -1 x38 -1 x39 >= -1 ;
+1 x27 +1 x28 +1 x29 +1 x30 +1 x31 +1 x32 +1 x33 +1 x34 +1 x35 +1 x36 +1 x37 +1 x38 +1 x39 >= 1 ;
-1 x40 -1 x41 -1 x42 -1 x43 -1 x44 -1 x45 -1 x46 -1 x47 -1 x48 -1 x49 -1 x50 -1 x51 -1 x52 >= -1 ;
+1 x40 +1 x41 +1 x42 +1 x43 +1 x44 +1 x45 +1 x46 +1 x47 +1 x48 +1 x49 +1 x50 +1 x51 +1 x52 >= 1 ;
-1 x53 -1 x54 -1 x55 -1 x56 -1 x57 -1 x58 -1 x59 -1 x60 -1 x61 -1 x62 -1 x63 -1 x64 -1 x65 >= -1 ;
+1 x53 +1 x54 +1 x55 +1 x56 +1 x57 +1 x58 +1 x59 +1 x60 +1 x61 +1 x62 +1 x63 +1 x64 +1 x65 >= 1 ;
-1 x66 -1 x67 -1 x68 -1 x69 -1 x70 -1 x71 -1 x72 -1 x73 -1 x74 -1 x75 -1 x76 -1 x77 -1 x78 >= -1 ;
+1 x66 +1 x67 +1 x68 +1 x69 +1 x70 +1 x71 +1 x72 +1 x73 +1 x74 +1 x75 +1 x76 +1 x77 +1 x78 >= 1 ;
-1 x79 -1 x80 -1 x81 -1 x82 -1 x83 -1 x84 -1 x85 -1 x86 -1 x87 -1 x88 -1 x89 -1 x90 -1 x91 >= -1 ;
+1 x79 +1 x80 +1 x81 +1 x82 +1 x83 +1 x84 +1 x85 +1 x86 +1 x87 +1 x88 +1 x89 +1 x90 +1 x91 >= 1 ;
-1 x92 -1 x93 -1 x94 -1 x95 -1 x96 -1 x97 -1 x98 -1 x99 -1 x100 -1 x101 -1 x102 -1 x103 -1 x104 >= -1 ;
+1 x92 +1 x93 +1 x94 +1 x95 +1 x96 +1 x97 +1 x98 +1 x99 +1 x100 +1 x101 +1 x102 +1 x103 +1 x104 >= 1 ;
-1 x105 -1 x106 -1 x107 -1 x108 -1 x109 -1 x110 -1 x111 -1 x112 -1 x113 -1 x114 -1 x115 -1 x116 -1 x117 >= -1 ;
+1 x105 +1 x106 +1 x107 +1 x108 +1 x109 +1 x110 +1 x111 +1 x112 +1 x113 +1 x114 +1 x115 +1 x116 +1 x117 >= 1 ;
-1 x118 -1 x119 -1 x120 -1 x121 -1 x122 -1 x123 -1 x124 -1 x125 -1 x126 -1 x127 -1 x128 -1 x129 -1 x130 >= -1 ;
+1 x118 +1 x119 +1 x120 +1 x121 +1 x122 +1 x123 +1 x124 +1 x125 +1 x126 +1 x127 +1 x128 +1 x129 +1 x130 >= 1 ;
-1 x131 -1 x132 -1 x133 -1 x134 -1 x135 -1 x136 -1 x137 -1 x138 -1 x139 -1 x140 -1 x141 -1 x142 -1 x143 >= -1 ;
+1 x131 +1 x132 +1 x133 +1 x134 +1 x135 +1 x136 +1 x137 +1 x138 +1 x139 +1 x140 +1 x141 +1 x142 +1 x143 >= 1 ;
-1 x144 -1 x145 -1 x146 -1 x147 -1 x148 -1 x149 -1 x150 -1 x151 -1 x152 -1 x153 -1 x154 -1 x155 -1 x156 >= -1 ;
+1 x144 +1 x145 +1 x146 +1 x147 +1 x148 +1 x149 +1 x150 +1 x151 +1 x152 +1 x153 +1 x154 +1 x155 +1 x156 >= 1 ;
-1 x157 -1 x158 -1 x159 -1 x160 -1 x161 -1 x162 -1 x163 -1 x164 -1 x165 -1 x166 -1 x167 -1 x168 -1 x169 >= -1 ;
+1 x157 +1 x158 +1 x159 +1 x160 +1 x161 +1 x162 +1 x163 +1 x164 +1 x165 +1 x166 +1 x167 +1 x168 +1 x169 >= 1 ;
-1 x1 -1 x14 -1 x27 -1 x40 -1 x53 -1 x66 -1 x79 -1 x92 -1 x105 -1 x118 -1 x131 -1 x144 -1 x157 >= -1 ;
+1 x1 +1 x14 +1 x27 +1 x40 +1 x53 +1 x66 +1 x79 +1 x92 +1 x105 +1 x118 +1 x131 +1 x144 +1 x157 >= 1 ;
-1 x2 -1 x15 -1 x28 -1 x41 -1 x54 -1 x67 -1 x80 -1 x93 -1 x106 -1 x119 -1 x132 -1 x145 -1 x158 >= -1 ;
+1 x2 +1 x15 +1 x28 +1 x41 +1 x54 +1 x67 +1 x80 +1 x93 +1 x106 +1 x119 +1 x132 +1 x145 +1 x158 >= 1 ;
-1 x3 -1 x16 -1 x29 -1 x42 -1 x55 -1 x68 -1 x81 -1 x94 -1 x107 -1 x120 -1 x133 -1 x146 -1 x159 >= -1 ;
+1 x3 +1 x16 +1 x29 +1 x42 +1 x55 +1 x68 +1 x81 +1 x94 +1 x107 +1 x120 +1 x133 +1 x146 +1 x159 >= 1 ;
-1 x4 -1 x17 -1 x30 -1 x43 -1 x56 -1 x69 -1 x82 -1 x95 -1 x108 -1 x121 -1 x134 -1 x147 -1 x160 >= -1 ;
+1 x4 +1 x17 +1 x30 +1 x43 +1 x56 +1 x69 +1 x82 +1 x95 +1 x108 +1 x121 +1 x134 +1 x147 +1 x160 >= 1 ;
-1 x5 -1 x18 -1 x31 -1 x44 -1 x57 -1 x70 -1 x83 -1 x96 -1 x109 -1 x122 -1 x135 -1 x148 -1 x161 >= -1 ;
+1 x5 +1 x18 +1 x31 +1 x44 +1 x57 +1 x70 +1 x83 +1 x96 +1 x109 +1 x122 +1 x135 +1 x148 +1 x161 >= 1 ;
-1 x6 -1 x19 -1 x32 -1 x45 -1 x58 -1 x71 -1 x84 -1 x97 -1 x110 -1 x123 -1 x136 -1 x149 -1 x162 >= -1 ;
+1 x6 +1 x19 +1 x32 +1 x45 +1 x58 +1 x71 +1 x84 +1 x97 +1 x110 +1 x123 +1 x136 +1 x149 +1 x162 >= 1 ;
-1 x7 -1 x20 -1 x33 -1 x46 -1 x59 -1 x72 -1 x85 -1 x98 -1 x111 -1 x124 -1 x137 -1 x150 -1 x163 >= -1 ;
+1 x7 +1 x20 +1 x33 +1 x46 +1 x59 +1 x72 +1 x85 +1 x98 +1 x111 +1 x124 +1 x137 +1 x150 +1 x163 >= 1 ;
-1 x8 -1 x21 -1 x34 -1 x47 -1 x60 -1 x73 -1 x86 -1 x99 -1 x112 -1 x125 -1 x138 -1 x151 -1 x164 >= -1 ;
+1 x8 +1 x21 +1 x34 +1 x47 +1 x60 +1 x73 +1 x86 +1 x99 +1 x112 +1 x125 +1 x138 +1 x151 +1 x164 >= 1 ;
-1 x9 -1 x22 -1 x35 -1 x48 -1 x61 -1 x74 -1 x87 -1 x100 -1 x113 -1 x126 -1 x139 -1 x152 -1 x165 >= -1 ;
+1 x9 +1 x22 +1 x35 +1 x48 +1 x61 +1 x74 +1 x87 +1 x100 +1 x113 +1 x126 +1 x139 +1 x152 +1 x165 >= 1 ;
-1 x10 -1 x23 -1 x36 -1 x49 -1 x62 -1 x75 -1 x88 -1 x101 -1 x114 -1 x127 -1 x140 -1 x153 -1 x166 >= -1 ;
+1 x10 +1 x23 +1 x36 +1 x49 +1 x62 +1 x75 +1 x88 +1 x101 +1 x114 +1 x127 +1 x140 +1 x153 +1 x166 >= 1 ;
-1 x11 -1 x24 -1 x37 -1 x50 -1 x63 -1 x76 -1 x89 -1 x102 -1 x115 -1 x128 -1 x141 -1 x154 -1 x167 >= -1 ;
+1 x11 +1 x24 +1 x37 +1 x50 +1 x63 +1 x76 +1 x89 +1 x102 +1 x115 +1 x128 +1 x141 +1 x154 +1 x167 >= 1 ;
-1 x12 -1 x25 -1 x38 -1 x51 -1 x64 -1 x77 -1 x90 -1 x103 -1 x116 -1 x129 -1 x142 -1 x155 -1 x168 >= -1 ;
+1 x12 +1 x25 +1 x38 +1 x51 +1 x64 +1 x77 +1 x90 +1 x103 +1 x116 +1 x129 +1 x142 +1 x155 +1 x168 >= 1 ;
-1 x13 -1 x26 -1 x39 -1 x52 -1 x65 -1 x78 -1 x91 -1 x104 -1 x117 -1 x130 -1 x143 -1 x156 -1 x169 >= -1 ;
+1 x13 +1 x26 +1 x39 +1 x52 +1 x65 +1 x78 +1 x91 +1 x104 +1 x117 +1 x130 +1 x143 +1 x156 +1 x169 >= 1 ;
-1 x1 -1 x15 -1 x29 -1 x43 -1 x57 -1 x71 -1 x85 -1 x99 -1 x113 -1 x127 -1 x141 -1 x155 -1 x169 >= -1 ;
-1 x14 -1 x28 -1 x42 -1 x56 -1 x70 -1 x84 -1 x98 -1 x112 -1 x126 -1 x140 -1 x154 -1 x168 >= -1 ;
-1 x27 -1 x41 -1 x55 -1 x69 -1 x83 -1 x97 -1 x111 -1 x125 -1 x139 -1 x153 -1 x167 >= -1 ;
-1 x40 -1 x54 -1 x68 -1 x82 -1 x96 -1 x110 -1 x124 -1 x138 -1 x152 -1 x166 >= -1 ;
-1 x53 -1 x67 -1 x81 -1 x95 -1 x109 -1 x123 -1 x137 -1 x151 -1 x165 >= -1 ;
-1 x66 -1 x80 -1 x94 -1 x108 -1 x122 -1 x136 -1 x150 -1 x164 >= -1 ;
-1 x79 -1 x93 -1 x107 -1 x121 -1 x135 -1 x149 -1 x163 >= -1 ;
-1 x92 -1 x106 -1 x120 -1 x134 -1 x148 -1 x162 >= -1 ;
-1 x105 -1 x119 -1 x133 -1 x147 -1 x161 >= -1 ;
-1 x118 -1 x132 -1 x146 -1 x160 >= -1 ;
-1 x131 -1 x145 -1 x159 >= -1 ;
-1 x144 -1 x158 >= -1 ;
-1 x14 -1 x2 >= -1 ;
-1 x27 -1 x15 -1 x3 >= -1 ;
-1 x40 -1 x28 -1 x16 -1 x4 >= -1 ;
-1 x53 -1 x41 -1 x29 -1 x17 -1 x5 >= -1 ;
-1 x66 -1 x54 -1 x42 -1 x30 -1 x18 -1 x6 >= -1 ;
-1 x79 -1 x67 -1 x55 -1 x43 -1 x31 -1 x19 -1 x7 >= -1 ;
-1 x92 -1 x80 -1 x68 -1 x56 -1 x44 -1 x32 -1 x20 -1 x8 >= -1 ;
-1 x105 -1 x93 -1 x81 -1 x69 -1 x57 -1 x45 -1 x33 -1 x21 -1 x9 >= -1 ;
-1 x118 -1 x106 -1 x94 -1 x82 -1 x70 -1 x58 -1 x46 -1 x34 -1 x22 -1 x10 >= -1 ;
-1 x131 -1 x119 -1 x107 -1 x95 -1 x83 -1 x71 -1 x59 -1 x47 -1 x35 -1 x23 -1 x11 >= -1 ;
-1 x144 -1 x132 -1 x120 -1 x108 -1 x96 -1 x84 -1 x72 -1 x60 -1 x48 -1 x36 -1 x24 -1 x12 >= -1 ;
-1 x157 -1 x145 -1 x133 -1 x121 -1 x109 -1 x97 -1 x85 -1 x73 -1 x61 -1 x49 -1 x37 -1 x25 -1 x13 >= -1 ;
-1 x1 -1 x15 -1 x29 -1 x43 -1 x57 -1 x71 -1 x85 -1 x99 -1 x113 -1 x127 -1 x141 -1 x155 -1 x169 >= -1 ;
-1 x2 -1 x16 -1 x30 -1 x44 -1 x58 -1 x72 -1 x86 -1 x100 -1 x114 -1 x128 -1 x142 -1 x156 >= -1 ;
-1 x3 -1 x17 -1 x31 -1 x45 -1 x59 -1 x73 -1 x87 -1 x101 -1 x115 -1 x129 -1 x143 >= -1 ;
-1 x4 -1 x18 -1 x32 -1 x46 -1 x60 -1 x74 -1 x88 -1 x102 -1 x116 -1 x130 >= -1 ;
-1 x5 -1 x19 -1 x33 -1 x47 -1 x61 -1 x75 -1 x89 -1 x103 -1 x117 >= -1 ;
-1 x6 -1 x20 -1 x34 -1 x48 -1 x62 -1 x76 -1 x90 -1 x104 >= -1 ;
-1 x7 -1 x21 -1 x35 -1 x49 -1 x63 -1 x77 -1 x91 >= -1 ;
-1 x8 -1 x22 -1 x36 -1 x50 -1 x64 -1 x78 >= -1 ;
-1 x9 -1 x23 -1 x37 -1 x51 -1 x65 >= -1 ;
-1 x10 -1 x24 -1 x38 -1 x52 >= -1 ;
-1 x11 -1 x25 -1 x39 >= -1 ;
-1 x12 -1 x26 >= -1 ;
-1 x157 -1 x145 -1 x133 -1 x121 -1 x109 -1 x97 -1 x85 -1 x73 -1 x61 -1 x49 -1 x37 -1 x25 -1 x13 >= -1 ;
-1 x158 -1 x146 -1 x134 -1 x122 -1 x110 -1 x98 -1 x86 -1 x74 -1 x62 -1 x50 -1 x38 -1 x26 >= -1 ;
-1 x159 -1 x147 -1 x135 -1 x123 -1 x111 -1 x99 -1 x87 -1 x75 -1 x63 -1 x51 -1 x39 >= -1 ;
-1 x160 -1 x148 -1 x136 -1 x124 -1 x112 -1 x100 -1 x88 -1 x76 -1 x64 -1 x52 >= -1 ;
-1 x161 -1 x149 -1 x137 -1 x125 -1 x113 -1 x101 -1 x89 -1 x77 -1 x65 >= -1 ;
-1 x162 -1 x150 -1 x138 -1 x126 -1 x114 -1 x102 -1 x90 -1 x78 >= -1 ;
-1 x163 -1 x151 -1 x139 -1 x127 -1 x115 -1 x103 -1 x91 >= -1 ;
-1 x164 -1 x152 -1 x140 -1 x128 -1 x116 -1 x104 >= -1 ;
-1 x165 -1 x153 -1 x141 -1 x129 -1 x117 >= -1 ;
-1 x166 -1 x154 -1 x142 -1 x130 >= -1 ;
-1 x167 -1 x155 -1 x143 >= -1 ;
-1 x168 -1 x156 >= -1 ;
-3 x1 -10 x14 -6 x27 -11 x40 -2 x53 -9 x66 -3 x79 -3 x92 -13 x105 -9 x118 -9 x131 -12 x144 -11 x157 -4 x2 -1 x15 -8 x28 -2 x41 -5 x54 -4 x67 -3 x80 -6 x93 -10 x106 -4 x119 -6 x132 -12 x145 -6 x158 -9 x3 -9 x16 -11 x29 -7 x42 -5 x55 -13 x68 -8 x81 -6 x94 -5 x107 -5 x120 -2 x133 -7 x146 -13 x159 -1 x4 -12 x17 -1 x30 -2 x43 -10 x56 -7 x69 -7 x82 -1 x95 -5 x108 -9 x121 -6 x134 -5 x147 -13 x160 -11 x5 -10 x18 -7 x31 -9 x44 -1 x57 -3 x70 -4 x83 -11 x96 -11 x109 -11 x122 -1 x135 -5 x148 -6 x161 -5 x6 -13 x19 -2 x32 -5 x45 -3 x58 -7 x71 -2 x84 -1 x97 -7 x110 -3 x123 -2 x136 -2 x149 -7 x162 -5 x7 -5 x20 -13 x33 -6 x46 -5 x59 -2 x72 -6 x85 -3 x98 -1 x111 -6 x124 -13 x137 -8 x150 -9 x163 -5 x8 -9 x21 -4 x34 -13 x47 -4 x60 -2 x73 -13 x86 -7 x99 -2 x112 -8 x125 -3 x138 -8 x151 -10 x164 -11 x9 -2 x22 -12 x35 -8 x48 -13 x61 -2 x74 -9 x87 -9 x100 -9 x113 -7 x126 -5 x139 -3 x152 -10 x165 -8 x10 -7 x23 -12 x36 -6 x49 -9 x62 -7 x75 -1 x88 -3 x101 -3 x114 -6 x127 -10 x140 -10 x153 -5 x166 -6 x11 -4 x24 -4 x37 -4 x50 -12 x63 -4 x76 -3 x89 -9 x102 -1 x115 -13 x128 -3 x141 -6 x154 -11 x167 -12 x12 -5 x25 -7 x38 -2 x51 -7 x64 -12 x77 -9 x90 -12 x103 -1 x116 -6 x129 -7 x142 -3 x155 -8 x168 -3 x13 -9 x26 -3 x39 -4 x52 -1 x65 -2 x78 -7 x91 -10 x104 -13 x117 -2 x130 -11 x143 -11 x156 -12 x169 >= -38 ;
